120
150
51
57
53
57
46
44
60
43
53
55
54
43
53
52
49
51
48
55
60
60
57
47
53
44
46
57
60
42
40
44
40
49
58
49
51
41
50
50
48
49
45
58
57
53
47
58
44
58
48
43
49
52
46
52
52
46
43
53
40
55
52
56
46
48
48
42
44
46
53
46
51
60
49
58
50
44
49
42
57
47
60
43
55
54
46
57
41
50
43
58
60
60
59
47
55
42
44
47
53
54
60
48
48
44
41
58
48
60
60
57
43
42
47
46
40
55
58
55
48
44
